1 1827 11
2 1609 11
3 1570 10
12 1527 10
26 1479 11
37 1468 10
42 1430 10
249 1410 10
586 1404 10



1 1789 11
2 1604 10
3 1602 10
6 1460 10
110 1444 10
126 1439 10
829 1431 10



1 1841 11
2 1591 10
3 1538 10
8 1462 10
57 1455 11
65 1430 10
104 1417 10
108 1414 10
775 1393 10



1 1811 11
2 1634 10
3 1602 10
4 1523 10
14 1507 10
20 1503 10
21 1499 10
32 1468 10
43 1431 10
177 1428 10
535 1419 10



1 1898 10
2 1616 11
4 1587 10
8 1557 10
11 1498 10
18 1492 10
20 1473 10
65 1450 10
323 1424 10
934 1408 10



